NAME : tsp_146_sol.txt
COMMENT : OR-Tools Guided Local Search
TYPE : TOUR
DIMENSION : 50
COST : 5623
STATUS : ROUTING_SUCCESS
GAP : 0.00% (Reference Solution)
TOUR_SECTION
1
33
41
23
31
26
40
21
2
8
49
24
25
50
37
19
6
38
20
27
35
5
22
10
34
29
4
30
44
42
48
39
18
13
32
9
16
11
3
28
12
46
7
47
14
43
45
17
36
15
-1
